
Gurobi 9.5.1 (mac64[x86], Python) logging started Fri May 13 11:16:29 2022

Set parameter LogFile to value "gurobi.log"

Gurobi 9.5.1 (mac64[x86], Python) logging started Fri May 13 11:17:01 2022

Set parameter LogFile to value "gurobi.log"

Gurobi 9.5.1 (mac64[x86], Python) logging started Fri May 13 11:17:36 2022

Set parameter LogFile to value "gurobi.log"

Gurobi 9.5.1 (mac64[x86], Python) logging started Fri May 13 11:33:56 2022

Set parameter WLSAccessID
Set parameter WLSSecret
Set parameter LicenseID
Set parameter LogFile to value "gurobi.log"

Gurobi 9.5.1 (mac64[x86], Python) logging started Fri May 13 11:34:53 2022

Set parameter WLSAccessID
Set parameter WLSSecret
Set parameter LicenseID
Set parameter LogFile to value "gurobi.log"

Gurobi 9.5.1 (mac64[x86], Python) logging started Fri May 13 11:35:15 2022

Set parameter WLSAccessID
Set parameter WLSSecret
Set parameter LicenseID
Set parameter LogFile to value "gurobi.log"

Gurobi 9.5.1 (mac64[x86], Python) logging started Fri May 13 11:41:52 2022

Set parameter WLSAccessID
Set parameter WLSSecret
Set parameter LicenseID
Set parameter LogFile to value "gurobi.log"

Gurobi 9.5.1 (mac64[x86], Python) logging started Fri May 13 11:43:16 2022

Set parameter WLSAccessID
Set parameter WLSSecret
Set parameter LicenseID
Set parameter LogFile to value "gurobi.log"

Gurobi 9.5.1 (mac64[x86], Python) logging started Fri May 13 11:49:40 2022

Set parameter WLSAccessID
Set parameter WLSSecret
Set parameter LicenseID
Set parameter LogFile to value "gurobi.log"

Gurobi 9.5.1 (mac64[x86], Python) logging started Fri May 13 12:07:22 2022

Set parameter LogFile to value "gurobi.log"

Gurobi 9.5.1 (mac64[x86], Python) logging started Fri May 13 12:07:42 2022

Set parameter LogFile to value "gurobi.log"

Gurobi 9.5.1 (mac64[x86], Python) logging started Fri May 13 12:42:54 2022

Set parameter LogFile to value "gurobi.log"

Gurobi 9.5.1 (mac64[x86], gurobi_cl) logging started Fri May 13 13:02:51 2022

Set parameter LogFile to value "gurobi.log"

Gurobi 9.5.1 (mac64[x86], gurobi_cl) logging started Fri May 13 13:03:02 2022

Set parameter LogFile to value "gurobi.log"

Gurobi 9.5.1 (mac64[x86], Python) logging started Fri May 13 13:06:22 2022

Set parameter LogFile to value "gurobi.log"

Gurobi 9.5.1 (mac64[x86], Python) logging started Fri May 13 13:07:13 2022

Set parameter LogFile to value "gurobi.log"

Gurobi 9.5.1 (mac64[x86], Python) logging started Fri May 13 13:34:57 2022

Set parameter LogFile to value "gurobi.log"

Gurobi 9.5.1 (mac64[x86], Python) logging started Fri May 13 14:02:44 2022

Set parameter LogFile to value "gurobi.log"
